122
10000000
1054054
1530374
1515118
976908
337557
1725127
1698227
89898
1514818
1409
1567131
597565
1859052
1964937
1553681
2031603
2241539
1781369
1645587
1933031
994947
406012
2347180
356187
2276681
1038091
1100249
1378261
157194
1714716
1153888
901579
1147795
147476
299399
262450
898103
65768
1912654
1582161
346035
806890
2402419
2226422
574160
682745
2273344
1157459
2494740
2199309
1258155
2073763
977110
1578132
760961
1176802
1983232
2192678
137930
2072568
1415804
1214308
2123095
2195650
2379885
679010
1357750
1975079
78873
432554
1374943
814122
469061
2167697
604051
403604
205414
583459
1008958
991718
1447044
57024
127278
941782
2425930
1692648
1507115
1967000
354531
1136819
1194250
744722
639986
2374725
1119089
795273
2478570
1015796
1587795
1471916
1284484
109116
1674539
1421955
2472873
1764255
362141
169596
20413
1400445
968031
1200972
2098987
73129
397866
2325093
1043613
95581
1222980
1987140
2442999
774834
